! This run demonstrates two techniques:
! I. FMO/AP (auxiliary polarization) and
! II. Subset of interactions.
!
! I. In FMO/AP, two basis sets are used, the smaller one BS1 for evaluating
! the polarization using the standard FMO method and a larger one BS2
! for reducing BSSE. Technically, three runs are conducted:
! 1. BS1 without the embedding potential (yielding energy E1)
! 2. BS1 with the embedding potential (E2) 
! 3. BS2 without the embedding potential (E3).
! The the total energy is obtained as E=E2-E1+E3.
! The options for AP are: ndualb=1 (turns AP on), and two basis
! sets in $DATA, $FMOBND, and $FMOHYB.
! Note that there are linear dependencies and poorer convergence for
! diffuse basis sets (aug-cc-pVDZ here), so qmttol=1e-5 is used to
! get rid of linear dependencies while maxit=100 is used for n-mer
! SCF and maxit=50 is used for the monomer loop.
!
! II. To save time and also avoid possible convergence problems for 
! dimers that are of little interest, here modmol=1 is used.
! With it, only dimers involving fragments listed in molfrg(1) are
! computed. In this case, fragment 21 is the ligand, so only
! residue-ligand pairs are computed.
!
! Be aware that this is a large calculation.
!
!Total energy of the molecule: Ecorr  (2)=    -7654.882184210
!Total energy of the molecule: Euncorr(2)=    -7650.137268482
!Total energy of the molecule: Edelta (2)=       -4.744915727
!
 $contrl runtyp=energy ispher=1 nprint=-5 maxit=100 qmttol=1e-5 $end
 $system mwords=200 memddi=100 $end
 $gddi ngroup=1 parout=.f. $end
 $scf dirscf=.t. NPUNCH=0 $end
 $fmoprp nprint=9 modorb=3 maxit=50 modpar=1033 $end 
 $pcm solvnt=water ief=-10 icomp=0 icav=1 idisp=1 ifmo=-1 $end
 $pcmcav radii=suahf $end
 $tescav ntsall=60 $end
 $fmo
      nbody=2 nlayer=1 nfrag=21 ndualb=1 mplevl=2
      modmol=1 molfrg(1)=21
      icharg(1)= 1, 0, 0, 0, 0,   0, 0, 1,-1, 0,
                 0, 0, 0, 0, 0,   1, 0, 0, 0,-1,
                 0
      frgnam(1)= asn001, leu002, tyr003, ile004, gln005,
                 trp006, leu007, lys008, asp009, gly010,
                 gly011, pro012, ser013, ser014, gly015,
                 arg016, pro017, pro018, pro019, ser020,
                 hophcooh
      indat(1)= 0
                1      2      5    -16      0
                3      4     17     18     21    -35      0
               19     20     36     37     40    -56      0
               38     39     57     58     61    -75      0
               59     60     76     77     80    -92      0
               78     79     93     94     97   -116      0
               95     96    117    118    121   -135      0
              119    120    136    137    140   -157      0
              138    139    158    159    162   -169      0
              160    161    170    171    174   -176      0
              172    173    177    178    181   -183      0
              179    180    184    185    188   -197      0
              186    187    198    199    202   -208      0
              200    201    209    210    213   -219      0
              211    212    220    221    224   -226      0
              222    223    227    228    231   -250      0
              229    230    251    252    255   -264      0
              253    254    265    266    269   -278      0
              267    268    279    280    283   -292      0
              281    282    293   -304      0
              305   -320    0
 $end
 $data
1L2Y + neutral ligand p-Me-PhCOOH
 C1
 h.1    1
ccd

 c.1    6
ccd

 n.1    7
ccd

 o.1    8
ccd

 h.2    1
accd

 c.2    6
accd

 n.2    7
accd

 o.2    8
accd

 $end
 $FMOLMO
cc-pVDZ 15 5
 1 0  0.073001  0.327576  0.211428  0.000000  0.000000  0.659685  0.000000
      0.000000  0.308077 -0.021065 -0.021065  0.042131  0.000000  0.000000
      0.000000
 0 1  0.073006  0.327600  0.211444  0.621943  0.000000 -0.219885  0.290451
      0.000000 -0.102688  0.035108 -0.021065 -0.014043  0.000000 -0.022932
      0.000000
 0 1  0.073004  0.327592  0.211439 -0.310978 -0.538623 -0.219882 -0.145229
     -0.251540 -0.102686 -0.007022  0.021065 -0.014043  0.028086  0.011466
      0.019861
 0 1  0.073004  0.327592  0.211439 -0.310978  0.538623 -0.219882 -0.145229
      0.251540 -0.102686 -0.007022  0.021065 -0.014043 -0.028086  0.011466
     -0.019861
 0 1  0.996761 -0.035495 -0.034218  0.000000  0.000000  0.000000  0.000000
      0.000000  0.000000  0.000000  0.000000  0.000000  0.000000  0.000000
      0.000000
auccpVDZ 25 5
 1 0  0.093295  0.384824  0.128093  0.000004 -0.000002  0.761998  0.000000
      0.000000  0.193717 -0.024678 -0.024678  0.049356  0.000000  0.000000
      0.000000 -0.000275  0.000000  0.000000 -0.023278  0.025231  0.025231
     -0.050462  0.000000  0.000000  0.000000
 0 1  0.093318  0.384927  0.128129 -0.359143 -0.622142 -0.253971 -0.091302
     -0.158163 -0.064566 -0.008223  0.024674 -0.016451  0.032901  0.013431
      0.023266 -0.000275  0.010970  0.019006  0.007759  0.008409 -0.025227
      0.016818 -0.033640 -0.013732 -0.023786
 0 1  0.093320  0.384927  0.128129 -0.359143  0.622142 -0.253969 -0.091302
      0.158163 -0.064566 -0.008223  0.024674 -0.016451 -0.032901  0.013431
     -0.023266 -0.000275  0.010971 -0.019006  0.007759  0.008409 -0.025227
      0.016818  0.033640 -0.013732  0.023786
 0 1  0.093299  0.384840  0.128099  0.718436  0.000000 -0.253917  0.182644
      0.000000 -0.064551  0.041126 -0.024680 -0.016446  0.000000 -0.026866
      0.000000 -0.000275 -0.021947  0.000000  0.007757 -0.042049  0.025235
      0.016816  0.000000  0.027468  0.000000
 0 1  0.998158 -0.035802 -0.044131  0.000000  0.000000  0.000000  0.000000
      0.000000  0.000000  0.000000  0.000000  0.000000  0.000000  0.000000
      0.000000 -0.008695  0.000000  0.000000  0.000000  0.000000  0.000000
      0.000000  0.000000  0.000000  0.000000
 $end
 $FMOBND
      -2     3  cc-pVDZ auccpVDZ      
     -18    19  cc-pVDZ auccpVDZ      
     -37    38  cc-pVDZ auccpVDZ      
     -58    59  cc-pVDZ auccpVDZ      
     -77    78  cc-pVDZ auccpVDZ      
     -94    95  cc-pVDZ auccpVDZ      
    -118   119  cc-pVDZ auccpVDZ      
    -137   138  cc-pVDZ auccpVDZ      
    -159   160  cc-pVDZ auccpVDZ      
    -171   172  cc-pVDZ auccpVDZ      
    -178   179  cc-pVDZ auccpVDZ      
    -185   186  cc-pVDZ auccpVDZ      
    -199   200  cc-pVDZ auccpVDZ      
    -210   211  cc-pVDZ auccpVDZ      
    -221   222  cc-pVDZ auccpVDZ      
    -228   229  cc-pVDZ auccpVDZ      
    -252   253  cc-pVDZ auccpVDZ      
    -266   267  cc-pVDZ auccpVDZ      
    -280   281  cc-pVDZ auccpVDZ      
 $end
 NSERCH: 299  E=     -409.9415678552  GRAD. MAX=  0.0000065  R.M.S.=  0.0000016
 $fmoxyz
 N           7.0   5.2260892061   4.9053289117  -7.9242046366
 C           6.0   5.0226097761   3.5700948733  -8.5383864504
 C           6.0   3.8843785973   2.8862886013  -7.7437633918
 O           8.0   3.2492020350   3.5380127136  -6.8845125411
 C           6.0   6.3418795826   2.7720890300  -8.4885666593
 C           6.0   6.7815994745   2.5430509904  -7.0462594438
 O           8.0   5.9671391144   2.7432749335  -6.1113071972
 N           7.0   8.0589517059   2.1752799185  -6.8071738050
 H           1.0   4.3208259084   5.4008917839  -7.8492255939
 H           1.0   5.6139917433   4.8017242771  -6.9706640524
 H           1.0   5.8727245647   5.4890918662  -8.4779958522
 H           1.0   4.7165176962   3.7298586088  -9.5832968311
 H           1.0   6.2016427821   1.8120309131  -8.9943558734
 H           1.0   7.1208154298   3.3014265856  -9.0449201211
 H           1.0   8.7234065727   2.0410904753  -7.5642688599
 H           1.0   8.3893552833   2.0954936870  -5.8481193371
 N           7.0   3.6079454939   1.5847124673  -8.0018711460
 C           6.0   2.5273203712   0.9269898196  -7.2436483709
 C           6.0   2.7999322358   1.1390513978  -5.7507293463
 O           8.0   1.9140574255   1.5564722485  -4.9649707490
 C           6.0   2.4762268096  -0.5711551367  -7.5933232584
 C           6.0   1.3202689281  -1.3586815810  -6.9416424793
 C           6.0   1.4117125367  -1.4037042073  -5.4088817135
 C           6.0  -0.0504960920  -0.8284334913  -7.3654800785
 H           1.0   4.0521853512   1.0868299232  -8.7756329036
 H           1.0   1.5650517942   1.4063789403  -7.4927347561
 H           1.0   2.3972916892  -0.6649056149  -8.6796391172
 H           1.0   3.4285101155  -1.0316784459  -7.3084242929
 H           1.0   1.4171192750  -2.3876667055  -7.3141433805
 H           1.0   0.8830336759  -2.2731286571  -5.0279480018
 H           1.0   2.4424805600  -1.4619498880  -5.0684153923
 H           1.0   0.9603148526  -0.5232554248  -4.9619437729
 H           1.0  -0.8369637691  -1.4730093002  -6.9852782058
 H           1.0  -0.2230771737   0.1719526807  -6.9733495423
 H           1.0  -0.1369620906  -0.7887978394  -8.4476372700
 N           7.0   4.0438890594   0.8393808997  -5.3067974129
 C           6.0   4.3618887302   0.8922537929  -3.8792381073
 C           6.0   3.8082585552   2.1751746859  -3.2452634796
 O           8.0   3.1578141718   2.1089096534  -2.1684620438
 C           6.0   5.8914664878   0.7969451230  -3.6977678447
 C           6.0   6.4283891665  -0.5735835908  -4.0405291924
 C           6.0   6.1985848247  -1.6449438516  -3.1645923568
 C           6.0   7.2253128830  -0.7817744087  -5.1749653646
 C           6.0   6.7137639270  -2.9139731227  -3.4225743881
 C           6.0   7.7559967797  -2.0412451327  -5.4431897809
 C           6.0   7.5175042258  -3.1075491604  -4.5614057473
 O           8.0   8.0681167789  -4.3189807235  -4.8175825295
 H           1.0   4.7426367549   0.4528721724  -5.9419561452
 H           1.0   3.8788209821   0.0411372898  -3.3591891171
 H           1.0   6.3674339292   1.5610726159  -4.3172457540
 H           1.0   6.1219200929   1.0301633203  -2.6542341927
 H           1.0   5.6038908449  -1.4689065753  -2.2718422063
 H           1.0   7.4168364219   0.0398164059  -5.8595903585
 H           1.0   6.5238323418  -3.7419198965  -2.7454454502
 H           1.0   8.3750346356  -2.1978791682  -6.3197002293
 H           1.0   7.6455478439  -5.0096906229  -4.2494896321
 N           7.0   4.0979095712   3.3811146318  -3.7992562510
 C           6.0   3.5318553479   4.5785667124  -3.1528286953
 C           6.0   1.9922332785   4.5358814832  -3.1533036007
 O           8.0   1.3498037677   4.8489814477  -2.1160953159
 C           6.0   4.1051900388   5.8870868602  -3.7627902858
 C           6.0   3.8459741319   7.0561906025  -2.7940464134
 C           6.0   3.5384408947   6.1850938598  -5.1499760814
 C           6.0   4.4543770562   8.3690684555  -3.2516290551
 H           1.0   4.5613625368   3.4375347108  -4.7110144793
 H           1.0   3.8329247450   4.5451595040  -2.0903788046
 H           1.0   5.1910716857   5.7438473875  -3.8563756874
 H           1.0   2.7670574348   7.1751548100  -2.6607749149
 H           1.0   4.2492544860   6.7919546768  -1.8104967514
 H           1.0   4.1254070922   6.9549950442  -5.6415892502
 H           1.0   3.5470994663   5.2965371901  -5.7765816803
 H           1.0   2.5129173676   6.5381619888  -5.0839170252
 H           1.0   4.3102845584   9.1375166222  -2.4980332565
 H           1.0   5.5216472293   8.2642973784  -3.4265686375
 H           1.0   3.9967224356   8.7161023386  -4.1736943066
 N           7.0   1.3443666996   4.1469478833  -4.2806830058
 C           6.0  -0.1202644042   3.9816095930  -4.2971942644
 C           6.0  -0.5954514689   3.0984898306  -3.1178412639
 O           8.0  -1.6950484530   3.3097516802  -2.5339421253
 C           6.0  -0.5191949305   3.3287008774  -5.6384662109
 C           6.0  -2.0384421913   3.2708939567  -5.8147130389
 C           6.0  -2.5747827396   4.6615244087  -6.1149291404
 O           8.0  -2.7622801670   5.5037289142  -5.2051807031
 N           7.0  -2.8116363874   4.9631430810  -7.4169100173
 H           1.0   1.8760304303   3.7952521881  -5.0826592984
 H           1.0  -0.6098437435   4.9671861005  -4.2053119306
 H           1.0  -0.0678752849   3.8932099761  -6.4591213031
 H           1.0  -0.0967244116   2.3193448661  -5.6793715899
 H           1.0  -2.2841528564   2.5909689607  -6.6326234695
 H           1.0  -2.5004437223   2.8769333999  -4.9059237819
 H           1.0  -2.6649985266   4.2812595623  -8.1526125387
 H           1.0  -3.1466380319   5.8878330470  -7.6699271037
 N           7.0   0.1931909847   2.0499583371  -2.7910259977
 C           6.0  -0.1106874469   1.1324427616  -1.6849250637
 C           6.0   0.0861592374   1.8611306685  -0.3460897450
 O           8.0  -0.7575795392   1.7713872031   0.5993941812
 C           6.0   0.8174004645  -0.1056331637  -1.8287811858
 C           6.0   0.8717240975  -0.9998457193  -0.6204269897
 C           6.0   0.1002816274  -2.1229406651  -0.3490309088
 C           6.0   1.8173775939  -0.8840310707   0.4531980492
 N           7.0   0.5000265870  -2.6780366485   0.8454169035
 C           6.0   1.5543060803  -1.9603654215   1.3499774958
 C           6.0   2.9148955013  -0.0301217331   0.7001373171
 C           6.0   2.3523277272  -2.2059729760   2.4847883589
 C           6.0   3.7161880580  -0.3003146962   1.8013270557
 C           6.0   3.4499177284  -1.3750182407   2.6837807380
 H           1.0   1.0733708630   1.9067372617  -3.3010433737
 H           1.0  -1.1668050080   0.8257558129  -1.7585430686
 H           1.0   0.4901586123  -0.6687900396  -2.7081364663
 H           1.0   1.8266629585   0.2648177124  -2.0404828169
 H           1.0  -0.6943555875  -2.5693209955  -0.9331250119
 H           1.0   0.1325859999  -3.5336058403   1.2662636547
 H           1.0   3.1516871339   0.7874816092   0.0238075983
 H           1.0   2.1230868901  -3.0260633206   3.1586352456
 H           1.0   4.5803931489   0.3270298458   1.9964381127
 H           1.0   4.1119827667  -1.5453770794   3.5273797559
 N           7.0   1.1847078915   2.6343673548  -0.2463178498
 C           6.0   1.4413396626   3.4258369708   0.9552307610
 C           6.0   0.2062429832   4.2786681658   1.2637748450
 O           8.0  -0.3164637676   4.2924008870   2.4060408794
 C           6.0   2.6864909868   4.3124903741   0.7884102662
 C           6.0   2.8438648344   5.2952970891   1.9705830599
 C           6.0   2.7669835014   4.5963884394   3.3318594319
 C           6.0   4.1374051676   6.0942286243   1.8393155357
 H           1.0   1.8505802719   2.6910160149  -1.0279416696
 H           1.0   1.6089982407   2.7460697763   1.8033795831
 H           1.0   3.5688581393   3.6721021891   0.7036576822
 H           1.0   2.6057100030   4.8741494560  -0.1479016392
 H           1.0   2.0038918854   6.0052716383   1.9167280318
 H           1.0   3.0251014872   5.2934238589   4.1235657859
 H           1.0   1.7634913408   4.2259824986   3.5272475732
 H           1.0   3.4602764628   3.7595605280   3.3847234166
 H           1.0   5.0056517282   5.4453307709   1.9151477989
 H           1.0   4.1827091625   6.6028686107   0.8783713687
 H           1.0   4.2074470424   6.8419021773   2.6235600887
 N           7.0  -0.3034359633   5.0349374032   0.2557251586
 C           6.0  -1.3461636259   6.0110643058   0.6041291354
 C           6.0  -2.5762610725   5.2864256288   1.1670842802
 O           8.0  -3.3321331354   5.8526229657   1.9902779902
 C           6.0  -1.6388539380   6.9495659930  -0.5752975237
 C           6.0  -2.3652750575   6.3224624953  -1.7698720487
 C           6.0  -3.8928511452   6.2819560269  -1.6109222258
 C           6.0  -4.5780176813   5.8194454662  -2.8968018619
 N           7.0  -4.2511949608   4.4140719909  -3.2109734598
 H           1.0   0.1612259067   5.0744792285  -0.6586248518
 H           1.0  -0.9611529077   6.6364204929   1.4300967216
 H           1.0  -2.2153641983   7.7977944335  -0.2003280783
 H           1.0  -0.6804579992   7.3504533694  -0.9164228618
 H           1.0  -2.1303069051   6.9044913242  -2.6639717900
 H           1.0  -1.9727395793   5.3174255368  -1.9438767773
 H           1.0  -4.1883823120   5.6331762797  -0.7815935608
 H           1.0  -4.2596238291   7.2821609660  -1.3740740058
 H           1.0  -5.6669677919   5.8990412035  -2.8070827973
 H           1.0  -4.2541588617   6.4331856927  -3.7426044758
 H           1.0  -3.2388477499   4.2085075952  -3.0752367170
 H           1.0  -4.8165884458   3.7560984058  -2.5986038969
 H           1.0  -4.4848375071   4.2079997571  -4.1889855380
 N           7.0  -2.8076089201   4.0041943157   0.7674322089
 C           6.0  -3.8251316723   3.1991013382   1.4603332118
 C           6.0  -3.1817140829   2.4420524474   2.6418963841
 O           8.0  -3.2666377155   1.2059481021   2.8006372473
 C           6.0  -4.5987025623   2.3339197420   0.4601491654
 C           6.0  -5.4907800952   3.2334156247  -0.4084194376
 O           8.0  -5.8959505199   4.3409735634   0.0815368942
 O           8.0  -5.7546944521   2.8520939507  -1.6059560918
 H           1.0  -2.1081110263   3.5024412896   0.2155598394
 H           1.0  -4.5320268949   3.9316286412   1.8878429622
 H           1.0  -3.9186519512   1.7724061834  -0.1823157522
 H           1.0  -5.2046820524   1.6029699544   1.0013886124
 N           7.0  -2.5725762245   3.2421622052   3.5647195842
 C           6.0  -2.1428787581   2.7474862874   4.8643712183
 C           6.0  -0.8701348349   1.9136489611   4.8171092373
 O           8.0  -0.4320375161   1.3631728055   5.8752019690
 H           1.0  -2.5330058887   4.2487292786   3.4020734201
 H           1.0  -1.9896279108   3.6032805320   5.5288811521
 H           1.0  -2.9367047176   2.1294719870   5.3118772465
 N           7.0  -0.2350120401   1.7233656906   3.6450636154
 C           6.0   1.0125315174   0.9681530527   3.5821875328
 C           6.0   1.0069594034  -0.1909101202   4.5745459302
 O           8.0   0.0770709745  -1.0516359660   4.5485935504
 H           1.0  -0.5299439369   2.2464293133   2.8106225509
 H           1.0   1.1152445236   0.5617220277   2.5661950978
 H           1.0   1.8756514674   1.6343010737   3.7493281619
 N           7.0   2.0315392520  -0.3503333258   5.4408693630
 C           6.0   2.0601428540  -1.5174702919   6.3381958710
 C           6.0   0.8747288322  -1.4873845309   7.3235987007
 O           8.0   0.2431207410  -2.5315739790   7.6139476914
 C           6.0   3.4305476659  -1.4314066419   7.0432856163
 C           6.0   3.9149137511   0.0027061190   6.8337886106
 C           6.0   3.1802811996   0.5338387451   5.6044937564
 H           1.0   1.9703339967  -2.4400745202   5.7417188225
 H           1.0   3.3622092904  -1.6905159625   8.0999829813
 H           1.0   4.1215240690  -2.1402979974   6.5835166243
 H           1.0   3.6681289928   0.6137125329   7.7049938780
 H           1.0   4.9959036446   0.0516805464   6.7108169931
 H           1.0   2.8585318817   1.5763605251   5.7384542621
 H           1.0   3.8213248833   0.5075933891   4.7071488117
 N           7.0   0.5269084404  -0.2904172174   7.8687453628
 C           6.0  -0.5546292691  -0.2122729170   8.8652334811
 C           6.0  -1.8633623229  -0.8097241592   8.3116698284
 O           8.0  -2.7499277748  -1.2526315583   9.0729922559
 C           6.0  -0.7990605811   1.2560876540   9.2877978951
 O           8.0  -1.4665066061   1.9794437838   8.2699973041
 H           1.0   1.0551772201   0.5532053235   7.6474691497
 H           1.0  -0.2667585723  -0.7958276945   9.7573188720
 H           1.0  -1.4282260201   1.2753695433  10.1868766873
 H           1.0   0.1674203325   1.7354457124   9.5355888361
 H           1.0  -1.0326247430   1.8182549922   7.3982119457
 N           7.0  -2.0388838550  -0.8089855942   6.9610861397
 C           6.0  -3.2703130467  -1.3456366695   6.3779365171
 C           6.0  -3.5214662160  -2.8151328839   6.7780293529
 O           8.0  -4.6777230639  -3.2928524487   6.7852140463
 C           6.0  -3.1473650659  -1.3314538757   4.8401343360
 O           8.0  -2.1889605848  -2.3202332245   4.4565368821
 H           1.0  -1.3326472944  -0.3899815005   6.3454417693
 H           1.0  -4.1347164790  -0.7353861733   6.6934669710
 H           1.0  -4.1041351625  -1.5965919474   4.3769008903
 H           1.0  -2.8330960133  -0.3408623821   4.4714783851
 H           1.0  -1.2809848800  -2.0169058524   4.6881370958
 N           7.0  -2.4213028283  -3.5989965559   6.9548103020
 C           6.0  -2.5360004987  -5.0333271256   7.1775186015
 C           6.0  -2.2424050060  -5.8856386886   5.9353996740
 O           8.0  -2.0851658652  -7.1240756983   6.0600492986
 H           1.0  -1.4905594754  -3.1690459239   7.0156157606
 H           1.0  -1.8620128114  -5.3415895637   7.9855241680
 H           1.0  -3.5620943511  -5.2405292635   7.5081367478
 N           7.0  -2.1611985359  -5.2880459346   4.7141123696
 C           6.0  -1.7949778465  -6.0933640325   3.5395577752
 C           6.0  -0.3968455097  -5.7098312788   3.0302493040
 O           8.0   0.0145961426  -4.5154012291   3.0334455057
 C           6.0  -2.8540019844  -6.0295702453   2.3987710879
 C           6.0  -2.6254412233  -4.9371295804   1.3474579790
 C           6.0  -2.7051235977  -3.5444798754   1.9801169494
 N           7.0  -2.8668564386  -2.4993946089   0.9712980429
 C           6.0  -2.3581105917  -1.2506306612   1.0483891151
 N           7.0  -1.4964151613  -0.8505222843   2.0116689872
 N           7.0  -2.6605270926  -0.3598901743   0.0700152350
 H           1.0  -2.1923138466  -4.2655641722   4.6294123791
 H           1.0  -1.7682993366  -7.1288633585   3.9158349049
 H           1.0  -2.8579107423  -6.9981588376   1.8923223966
 H           1.0  -3.8423556545  -5.9068886727   2.8468581210
 H           1.0  -1.6529927820  -5.0728466003   0.8629782470
 H           1.0  -3.3888220865  -5.0348267282   0.5714192254
 H           1.0  -3.5469014782  -3.5070995412   2.6898897065
 H           1.0  -1.7839580197  -3.3629969669   2.5397765370
 H           1.0  -3.5363779266  -2.6801351916   0.2220998068
 H           1.0  -1.3263919498  -1.4041248367   2.8519168692
 H           1.0  -1.2752237898   0.1428762548   2.0303920567
 H           1.0  -3.3124476333  -0.5985905206  -0.6714187917
 H           1.0  -2.2526769703   0.5768156677   0.1494733225
 N           7.0   0.3928185027  -6.7012968460   2.5574044976
 C           6.0   1.7484681664  -6.4124875652   2.0787449286
 C           6.0   1.7421680203  -5.4968052738   0.8439846379
 O           8.0   0.7364328628  -5.4035045133   0.0952060628
 C           6.0   2.3049746251  -7.7902737155   1.6681133686
 C           6.0   1.0543181302  -8.6054258620   1.3589182608
 C           6.0   0.0341494078  -8.1086558815   2.3820870492
 H           1.0   2.3342047434  -5.9498835225   2.8926382030
 H           1.0   2.9833010457  -7.7204509886   0.8149539177
 H           1.0   2.8583809467  -8.2369557442   2.4974310568
 H           1.0   0.7034020879  -8.3829505527   0.3490487034
 H           1.0   1.2237092027  -9.6796352816   1.4254091846
 H           1.0  -0.9988601667  -8.2156745437   2.0279306208
 H           1.0   0.1148015470  -8.6578595229   3.3350056773
 N           7.0   2.9088757651  -4.8660019231   0.5585734535
 C           6.0   3.1787811863  -4.2335531611  -0.7373905902
 C           6.0   3.6010667814  -5.3217591244  -1.7556088841
 O           8.0   3.8110527608  -6.5020658273  -1.3902016148
 C           6.0   4.3634022878  -3.2968969134  -0.4267553233
 C           6.0   5.1194439715  -4.0012547343   0.7001807872
 C           6.0   4.0835261600  -4.8627638769   1.4252654057
 H           1.0   2.2829194155  -3.6931337487  -1.0873741151
 H           1.0   4.9997929126  -3.1348197679  -1.2957264461
 H           1.0   3.9942555741  -2.3229008734  -0.0973377494
 H           1.0   5.9098615799  -4.6313059075   0.2862086680
 H           1.0   5.5945953423  -3.2882492868   1.3743154688
 H           1.0   4.4596813618  -5.8842131746   1.5956054185
 H           1.0   3.8316608845  -4.4482203323   2.4144214608
 N           7.0   3.8162775001  -4.9441774502  -3.0469057001
 C           6.0   4.2858201665  -5.9106522524  -4.0588298700
 C           6.0   5.5192529786  -6.6877064078  -3.5596912090
 O           8.0   6.6422693022  -6.1131733375  -3.4588370853
 C           6.0   4.6059398656  -5.0440493780  -5.2890596196
 C           6.0   3.9203697390  -3.6912169614  -5.0768830276
 C           6.0   3.4044329808  -3.6722164576  -3.6333100072
 H           1.0   3.4749819488  -6.6316376597  -4.2826187134
 H           1.0   5.6883876746  -4.9146179278  -5.3704758313
 H           1.0   4.2728320431  -5.5276087289  -6.2070919048
 H           1.0   4.6132037236  -2.8670207690  -5.2578971686
 H           1.0   3.0947139603  -3.5669018679  -5.7804809719
 H           1.0   3.8174330827  -2.8233326820  -3.0664477457
 H           1.0   2.3069042513  -3.5638929793  -3.5967468309
 N           7.0   5.3847700801  -8.0002793555  -3.3012564012
 C           6.0   6.4860695597  -8.8303935453  -2.8080624904
 C           6.0   5.9763864226 -10.2981829912  -2.6760777082
 O           8.0   4.8496381970 -10.5786678873  -3.1872508725
 C           6.0   7.0123530412  -8.3057447780  -1.4445619853
 O           8.0   8.0353900501  -9.1657477730  -0.9682447930
 O           8.0   6.7113682936 -11.1286082990  -2.0239021193
 H           1.0   4.4774464672  -8.4694699440  -3.3750041851
 H           1.0   7.3180489609  -8.7958962185  -3.5351183745
 H           1.0   7.4208755625  -7.2910104602  -1.5493923187
 H           1.0   6.1752637739  -8.2563050553  -0.7184925620
 H           1.0   7.7391438305 -10.0868610646  -1.2065605847
 C           6.0  -9.8060008299   3.8499541608  -2.1708631999
 C           6.0 -10.5999245448   6.1212146895  -2.5127313703
 C           6.0  -8.6025781074   4.3404286538  -1.6855940770
 C           6.0  -9.4035255827   6.6264972971  -2.0259766779
 C           6.0 -10.8273770553   4.7322171924  -2.5852872811
 C           6.0  -8.3935307896   5.7349184636  -1.6074504144
 H           1.0  -9.9739816154   2.7791349613  -2.2324568041
 H           1.0 -11.3900656585   6.7934903884  -2.8346751907
 H           1.0  -7.8102107780   3.6608260452  -1.3859890123
 H           1.0  -9.2407082096   7.6967389408  -1.9634652496
 H           1.0 -13.1731500942   2.6533001528  -3.3613093108
 C           6.0 -12.1123415434   4.2297830481  -3.0850339137
 H           1.0  -6.6914270484   5.4793993095  -0.7030024675
 O           8.0  -7.2462151870   6.2219476568  -1.1049118468
 O           8.0 -13.0120985725   4.9410818108  -3.5711689981
 O           8.0 -12.3013094552   2.8953267654  -2.9918926009
 $end
